50 8
532 782
309 876
373 236
172 797
393 896
496 917
261 918
654 411
526 335
862 505
468 760
414 665
456 714
547 790
248 897
206 441
28 512
214 825
145 305
438 555
449 347
186 450
255 857
264 962
252 882
413 508
505 966
725 976
263 319
293 214
606 385
739 541
404 617
344 903
860 561
495 177
489 40
384 652
155 520
48 375
395 593
391 608
489 321
324 276
333 259
420 546
313 896
312 725
365 588
257 419
